c Cardinality constraint <=k(x_1,...,x_n) for k = 2 and n = 5.
p cnf 13 18
-1 6 0
-7 0
-2 8 0
-6 8 0
-2 -6 9 0
-7 9 0
-2 -7 0
-3 10 0
-8 10 0
-3 -8 11 0
-9 11 0
-3 -9 0
-4 12 0
-10 12 0
-4 -10 13 0
-11 13 0
-4 -11 0
-5 -13 0
